Version identifier: 20.1.0.0 | 2020-11-10 | 9bedb6d68
Tried aggregator 2 times.
MIP Presolve eliminated 1344 rows and 759 columns.
MIP Presolve modified 2614 coefficients.
Aggregator did 147 substitutions.
Reduced MIP has 1065 rows, 901 columns, and 3381 nonzeros.
Reduced MIP has 234 binaries, 667 generals, 0 SOSs, and 0 indicators.
Presolve time = 0.02 sec. (5.56 ticks)
Found incumbent of value 66.000000 after 0.03 sec. (9.61 ticks)
Probing fixed 28 vars, tightened 258 bounds.
Probing time = 0.00 sec. (1.18 ticks)
Tried aggregator 2 times.
Detecting symmetries...
MIP Presolve eliminated 420 rows and 40 columns.
MIP Presolve modified 76 coefficients.
Aggregator did 9 substitutions.
Reduced MIP has 636 rows, 852 columns, and 2066 nonzeros.
Reduced MIP has 305 binaries, 547 generals, 0 SOSs, and 0 indicators.
Presolve time = 0.01 sec. (2.97 ticks)
Probing time = 0.00 sec. (0.21 ticks)
Clique table members: 13.
MIP emphasis: balance optimality and feasibility.
MIP search method: dynamic search.
Parallel mode: deterministic, using up to 24 threads.
Root relaxation solution time = 0.00 sec. (2.07 ticks)

        Nodes                                         Cuts/
   Node  Left     Objective  IInf  Best Integer    Best Bound    ItCnt     Gap

*     0+    0                           66.0000        0.0000           100.00%
      0     0        0.0000    45       66.0000        0.0000      216  100.00%
      0     0        1.5961   121       66.0000     Cuts: 137      442   97.58%
      0     0        2.4590   217       66.0000      Cuts: 95      565   96.27%
      0     0        2.8168   244       66.0000     Cuts: 106      638   95.73%
      0     0        3.1160   271       66.0000      Cuts: 85      759   95.28%
*     0+    0                           28.0000        3.1160            88.87%
      0     0        3.4501   248       28.0000      Cuts: 98      862   87.68%
      0     0        4.1885   230       28.0000     Cuts: 124      968   85.04%
      0     0        4.4618   294       28.0000      Cuts: 85     1122   84.06%
      0     0        4.5095   263       28.0000     Cuts: 117     1205   83.89%
      0     0        4.8095   290       28.0000      Cuts: 74     1292   82.82%
      0     0        4.8900   288       28.0000      Cuts: 70     1363   82.54%
*     0+    0                           15.0000        4.8900            67.40%
      0     0        cutoff             15.0000       15.0000     1426    0.00%
Elapsed time = 0.24 sec. (99.73 ticks, tree = 0.01 MB, solutions = 3)

Cover cuts applied:  1
Implied bound cuts applied:  24
Flow cuts applied:  5
Mixed integer rounding cuts applied:  27
Zero-half cuts applied:  163
Lift and project cuts applied:  1
Gomory fractional cuts applied:  4

Root node processing (before b&c):
  Real time             =    0.24 sec. (99.83 ticks)
Parallel b&c, 24 threads:
  Real time             =    0.00 sec. (0.00 ticks)
  Sync time (average)   =    0.00 sec.
  Wait time (average)   =    0.00 sec.
                          ------------
Total (root+branch&cut) =    0.24 sec. (99.83 ticks)

Solution status = Optimal
Solution LB = 15
Solution UB = 15
Runtime = 0.245947 seconds
	Command being timed: "/home/min/git_repos/CS598MEBProject/CNT-ILP/build/cnt -s 2 ./output/k6_n30/simC_c1_k6_n30_u2_s2_del02.input-right.cnp"
	User time (seconds): 2.31
	System time (seconds): 0.10
	Percent of CPU this job got: 924%
	Elapsed (wall clock) time (h:mm:ss or m:ss): 0:00.26
	Average shared text size (kbytes): 0
	Average unshared data size (kbytes): 0
	Average stack size (kbytes): 0
	Average total size (kbytes): 0
	Maximum resident set size (kbytes): 67824
	Average resident set size (kbytes): 0
	Major (requiring I/O) page faults: 0
	Minor (reclaiming a frame) page faults: 13991
	Voluntary context switches: 3067
	Involuntary context switches: 224
	Swaps: 0
	File system inputs: 0
	File system outputs: 16
	Socket messages sent: 0
	Socket messages received: 0
	Signals delivered: 0
	Page size (bytes): 4096
	Exit status: 0
